p cnf 90 1728
1 2 3 4 5 0
6 7 8 9 10 0
11 12 13 14 15 0
16 17 18 19 20 0
21 22 23 24 25 0
26 27 28 29 30 0
31 32 33 34 35 0
36 37 38 39 40 0
41 42 43 44 45 0
46 47 48 49 50 0
51 52 53 54 55 0
56 57 58 59 60 0
61 62 63 64 65 0
66 67 68 69 70 0
71 72 73 74 75 0
76 77 78 79 80 0
81 82 83 84 85 0
86 87 88 89 90 0
-1 -2 0
-1 -3 0
-1 -4 0
-1 -5 0
-2 -3 0
-2 -4 0
-2 -5 0
-3 -4 0
-3 -5 0
-4 -5 0
-6 -7 0
-6 -8 0
-6 -9 0
-6 -10 0
-7 -8 0
-7 -9 0
-7 -10 0
-8 -9 0
-8 -10 0
-9 -10 0
-11 -12 0
-11 -13 0
-11 -14 0
-11 -15 0
-12 -13 0
-12 -14 0
-12 -15 0
-13 -14 0
-13 -15 0
-14 -15 0
-16 -17 0
-16 -18 0
-16 -19 0
-16 -20 0
-17 -18 0
-17 -19 0
-17 -20 0
-18 -19 0
-18 -20 0
-19 -20 0
-21 -22 0
-21 -23 0
-21 -24 0
-21 -25 0
-22 -23 0
-22 -24 0
-22 -25 0
-23 -24 0
-23 -25 0
-24 -25 0
-26 -27 0
-26 -28 0
-26 -29 0
-26 -30 0
-27 -28 0
-27 -29 0
-27 -30 0
-28 -29 0
-28 -30 0
-29 -30 0
-31 -32 0
-31 -33 0
-31 -34 0
-31 -35 0
-32 -33 0
-32 -34 0
-32 -35 0
-33 -34 0
-33 -35 0
-34 -35 0
-36 -37 0
-36 -38 0
-36 -39 0
-36 -40 0
-37 -38 0
-37 -39 0
-37 -40 0
-38 -39 0
-38 -40 0
-39 -40 0
-41 -42 0
-41 -43 0
-41 -44 0
-41 -45 0
-42 -43 0
-42 -44 0
-42 -45 0
-43 -44 0
-43 -45 0
-44 -45 0
-46 -47 0
-46 -48 0
-46 -49 0
-46 -50 0
-47 -48 0
-47 -49 0
-47 -50 0
-48 -49 0
-48 -50 0
-49 -50 0
-51 -52 0
-51 -53 0
-51 -54 0
-51 -55 0
-52 -53 0
-52 -54 0
-52 -55 0
-53 -54 0
-53 -55 0
-54 -55 0
-56 -57 0
-56 -58 0
-56 -59 0
-56 -60 0
-57 -58 0
-57 -59 0
-57 -60 0
-58 -59 0
-58 -60 0
-59 -60 0
-61 -62 0
-61 -63 0
-61 -64 0
-61 -65 0
-62 -63 0
-62 -64 0
-62 -65 0
-63 -64 0
-63 -65 0
-64 -65 0
-66 -67 0
-66 -68 0
-66 -69 0
-66 -70 0
-67 -68 0
-67 -69 0
-67 -70 0
-68 -69 0
-68 -70 0
-69 -70 0
-71 -72 0
-71 -73 0
-71 -74 0
-71 -75 0
-72 -73 0
-72 -74 0
-72 -75 0
-73 -74 0
-73 -75 0
-74 -75 0
-76 -77 0
-76 -78 0
-76 -79 0
-76 -80 0
-77 -78 0
-77 -79 0
-77 -80 0
-78 -79 0
-78 -80 0
-79 -80 0
-81 -82 0
-81 -83 0
-81 -84 0
-81 -85 0
-82 -83 0
-82 -84 0
-82 -85 0
-83 -84 0
-83 -85 0
-84 -85 0
-86 -87 0
-86 -88 0
-86 -89 0
-86 -90 0
-87 -88 0
-87 -89 0
-87 -90 0
-88 -89 0
-88 -90 0
-89 -90 0
-1 7 8 9 10 0
-2 6 8 9 10 0
-3 6 7 9 10 0
-4 6 7 8 10 0
-5 6 7 8 9 0
-1 12 13 14 15 0
-2 11 13 14 15 0
-3 11 12 14 15 0
-4 11 12 13 15 0
-5 11 12 13 14 0
-1 17 18 19 20 0
-2 16 18 19 20 0
-3 16 17 19 20 0
-4 16 17 18 20 0
-5 16 17 18 19 0
-1 22 23 24 25 0
-2 21 23 24 25 0
-3 21 22 24 25 0
-4 21 22 23 25 0
-5 21 22 23 24 0
-1 26 27 28 29 30 0
-2 26 27 28 29 30 0
-3 26 27 28 29 30 0
-4 26 27 28 29 30 0
-5 26 27 28 29 30 0
-1 31 32 33 34 35 0
-2 31 32 33 34 35 0
-3 31 32 33 34 35 0
-4 31 32 33 34 35 0
-5 31 32 33 34 35 0
-1 37 38 39 40 0
-2 36 38 39 40 0
-3 36 37 39 40 0
-4 36 37 38 40 0
-5 36 37 38 39 0
-1 41 42 43 44 45 0
-2 41 42 43 44 45 0
-3 41 42 43 44 45 0
-4 41 42 43 44 45 0
-5 41 42 43 44 45 0
-1 47 48 49 50 0
-2 46 48 49 50 0
-3 46 47 49 50 0
-4 46 47 48 50 0
-5 46 47 48 49 0
-1 51 52 53 54 55 0
-2 51 52 53 54 55 0
-3 51 52 53 54 55 0
-4 51 52 53 54 55 0
-5 51 52 53 54 55 0
-1 56 57 58 59 60 0
-2 56 57 58 59 60 0
-3 56 57 58 59 60 0
-4 56 57 58 59 60 0
-5 56 57 58 59 60 0
-1 62 63 64 65 0
-2 61 63 64 65 0
-3 61 62 64 65 0
-4 61 62 63 65 0
-5 61 62 63 64 0
-1 67 68 69 70 0
-2 66 68 69 70 0
-3 66 67 69 70 0
-4 66 67 68 70 0
-5 66 67 68 69 0
-1 71 72 73 74 75 0
-2 71 72 73 74 75 0
-3 71 72 73 74 75 0
-4 71 72 73 74 75 0
-5 71 72 73 74 75 0
-1 76 77 78 79 80 0
-2 76 77 78 79 80 0
-3 76 77 78 79 80 0
-4 76 77 78 79 80 0
-5 76 77 78 79 80 0
-1 81 82 83 84 85 0
-2 81 82 83 84 85 0
-3 81 82 83 84 85 0
-4 81 82 83 84 85 0
-5 81 82 83 84 85 0
-1 87 88 89 90 0
-2 86 88 89 90 0
-3 86 87 89 90 0
-4 86 87 88 90 0
-5 86 87 88 89 0
-6 2 3 4 5 0
-7 1 3 4 5 0
-8 1 2 4 5 0
-9 1 2 3 5 0
-10 1 2 3 4 0
-6 12 13 14 15 0
-7 11 13 14 15 0
-8 11 12 14 15 0
-9 11 12 13 15 0
-10 11 12 13 14 0
-6 17 18 19 20 0
-7 16 18 19 20 0
-8 16 17 19 20 0
-9 16 17 18 20 0
-10 16 17 18 19 0
-6 22 23 24 25 0
-7 21 23 24 25 0
-8 21 22 24 25 0
-9 21 22 23 25 0
-10 21 22 23 24 0
-6 26 27 28 29 30 0
-7 26 27 28 29 30 0
-8 26 27 28 29 30 0
-9 26 27 28 29 30 0
-10 26 27 28 29 30 0
-6 32 33 34 35 0
-7 31 33 34 35 0
-8 31 32 34 35 0
-9 31 32 33 35 0
-10 31 32 33 34 0
-6 37 38 39 40 0
-7 36 38 39 40 0
-8 36 37 39 40 0
-9 36 37 38 40 0
-10 36 37 38 39 0
-6 42 43 44 45 0
-7 41 43 44 45 0
-8 41 42 44 45 0
-9 41 42 43 45 0
-10 41 42 43 44 0
-6 46 47 48 49 50 0
-7 46 47 48 49 50 0
-8 46 47 48 49 50 0
-9 46 47 48 49 50 0
-10 46 47 48 49 50 0
-6 52 53 54 55 0
-7 51 53 54 55 0
-8 51 52 54 55 0
-9 51 52 53 55 0
-10 51 52 53 54 0
-6 57 58 59 60 0
-7 56 58 59 60 0
-8 56 57 59 60 0
-9 56 57 58 60 0
-10 56 57 58 59 0
-6 62 63 64 65 0
-7 61 63 64 65 0
-8 61 62 64 65 0
-9 61 62 63 65 0
-10 61 62 63 64 0
-6 66 67 68 69 70 0
-7 66 67 68 69 70 0
-8 66 67 68 69 70 0
-9 66 67 68 69 70 0
-10 66 67 68 69 70 0
-6 72 73 74 75 0
-7 71 73 74 75 0
-8 71 72 74 75 0
-9 71 72 73 75 0
-10 71 72 73 74 0
-6 77 78 79 80 0
-7 76 78 79 80 0
-8 76 77 79 80 0
-9 76 77 78 80 0
-10 76 77 78 79 0
-6 82 83 84 85 0
-7 81 83 84 85 0
-8 81 82 84 85 0
-9 81 82 83 85 0
-10 81 82 83 84 0
-6 86 87 88 89 90 0
-7 86 87 88 89 90 0
-8 86 87 88 89 90 0
-9 86 87 88 89 90 0
-10 86 87 88 89 90 0
-11 2 3 4 5 0
-12 1 3 4 5 0
-13 1 2 4 5 0
-14 1 2 3 5 0
-15 1 2 3 4 0
-11 7 8 9 10 0
-12 6 8 9 10 0
-13 6 7 9 10 0
-14 6 7 8 10 0
-15 6 7 8 9 0
-11 17 18 19 20 0
-12 16 18 19 20 0
-13 16 17 19 20 0
-14 16 17 18 20 0
-15 16 17 18 19 0
-11 22 23 24 25 0
-12 21 23 24 25 0
-13 21 22 24 25 0
-14 21 22 23 25 0
-15 21 22 23 24 0
-11 27 28 29 30 0
-12 26 28 29 30 0
-13 26 27 29 30 0
-14 26 27 28 30 0
-15 26 27 28 29 0
-11 31 32 33 34 35 0
-12 31 32 33 34 35 0
-13 31 32 33 34 35 0
-14 31 32 33 34 35 0
-15 31 32 33 34 35 0
-11 36 37 38 39 40 0
-12 36 37 38 39 40 0
-13 36 37 38 39 40 0
-14 36 37 38 39 40 0
-15 36 37 38 39 40 0
-11 41 42 43 44 45 0
-12 41 42 43 44 45 0
-13 41 42 43 44 45 0
-14 41 42 43 44 45 0
-15 41 42 43 44 45 0
-11 47 48 49 50 0
-12 46 48 49 50 0
-13 46 47 49 50 0
-14 46 47 48 50 0
-15 46 47 48 49 0
-11 51 52 53 54 55 0
-12 51 52 53 54 55 0
-13 51 52 53 54 55 0
-14 51 52 53 54 55 0
-15 51 52 53 54 55 0
-11 57 58 59 60 0
-12 56 58 59 60 0
-13 56 57 59 60 0
-14 56 57 58 60 0
-15 56 57 58 59 0
-11 62 63 64 65 0
-12 61 63 64 65 0
-13 61 62 64 65 0
-14 61 62 63 65 0
-15 61 62 63 64 0
-11 67 68 69 70 0
-12 66 68 69 70 0
-13 66 67 69 70 0
-14 66 67 68 70 0
-15 66 67 68 69 0
-11 72 73 74 75 0
-12 71 73 74 75 0
-13 71 72 74 75 0
-14 71 72 73 75 0
-15 71 72 73 74 0
-11 77 78 79 80 0
-12 76 78 79 80 0
-13 76 77 79 80 0
-14 76 77 78 80 0
-15 76 77 78 79 0
-11 82 83 84 85 0
-12 81 83 84 85 0
-13 81 82 84 85 0
-14 81 82 83 85 0
-15 81 82 83 84 0
-11 87 88 89 90 0
-12 86 88 89 90 0
-13 86 87 89 90 0
-14 86 87 88 90 0
-15 86 87 88 89 0
-16 2 3 4 5 0
-17 1 3 4 5 0
-18 1 2 4 5 0
-19 1 2 3 5 0
-20 1 2 3 4 0
-16 7 8 9 10 0
-17 6 8 9 10 0
-18 6 7 9 10 0
-19 6 7 8 10 0
-20 6 7 8 9 0
-16 12 13 14 15 0
-17 11 13 14 15 0
-18 11 12 14 15 0
-19 11 12 13 15 0
-20 11 12 13 14 0
-16 21 22 23 24 25 0
-17 21 22 23 24 25 0
-18 21 22 23 24 25 0
-19 21 22 23 24 25 0
-20 21 22 23 24 25 0
-16 26 27 28 29 30 0
-17 26 27 28 29 30 0
-18 26 27 28 29 30 0
-19 26 27 28 29 30 0
-20 26 27 28 29 30 0
-16 31 32 33 34 35 0
-17 31 32 33 34 35 0
-18 31 32 33 34 35 0
-19 31 32 33 34 35 0
-20 31 32 33 34 35 0
-16 37 38 39 40 0
-17 36 38 39 40 0
-18 36 37 39 40 0
-19 36 37 38 40 0
-20 36 37 38 39 0
-16 42 43 44 45 0
-17 41 43 44 45 0
-18 41 42 44 45 0
-19 41 42 43 45 0
-20 41 42 43 44 0
-16 47 48 49 50 0
-17 46 48 49 50 0
-18 46 47 49 50 0
-19 46 47 48 50 0
-20 46 47 48 49 0
-16 51 52 53 54 55 0
-17 51 52 53 54 55 0
-18 51 52 53 54 55 0
-19 51 52 53 54 55 0
-20 51 52 53 54 55 0
-16 56 57 58 59 60 0
-17 56 57 58 59 60 0
-18 56 57 58 59 60 0
-19 56 57 58 59 60 0
-20 56 57 58 59 60 0
-16 61 62 63 64 65 0
-17 61 62 63 64 65 0
-18 61 62 63 64 65 0
-19 61 62 63 64 65 0
-20 61 62 63 64 65 0
-16 66 67 68 69 70 0
-17 66 67 68 69 70 0
-18 66 67 68 69 70 0
-19 66 67 68 69 70 0
-20 66 67 68 69 70 0
-16 72 73 74 75 0
-17 71 73 74 75 0
-18 71 72 74 75 0
-19 71 72 73 75 0
-20 71 72 73 74 0
-16 76 77 78 79 80 0
-17 76 77 78 79 80 0
-18 76 77 78 79 80 0
-19 76 77 78 79 80 0
-20 76 77 78 79 80 0
-16 81 82 83 84 85 0
-17 81 82 83 84 85 0
-18 81 82 83 84 85 0
-19 81 82 83 84 85 0
-20 81 82 83 84 85 0
-16 86 87 88 89 90 0
-17 86 87 88 89 90 0
-18 86 87 88 89 90 0
-19 86 87 88 89 90 0
-20 86 87 88 89 90 0
-21 2 3 4 5 0
-22 1 3 4 5 0
-23 1 2 4 5 0
-24 1 2 3 5 0
-25 1 2 3 4 0
-21 7 8 9 10 0
-22 6 8 9 10 0
-23 6 7 9 10 0
-24 6 7 8 10 0
-25 6 7 8 9 0
-21 12 13 14 15 0
-22 11 13 14 15 0
-23 11 12 14 15 0
-24 11 12 13 15 0
-25 11 12 13 14 0
-21 16 17 18 19 20 0
-22 16 17 18 19 20 0
-23 16 17 18 19 20 0
-24 16 17 18 19 20 0
-25 16 17 18 19 20 0
-21 26 27 28 29 30 0
-22 26 27 28 29 30 0
-23 26 27 28 29 30 0
-24 26 27 28 29 30 0
-25 26 27 28 29 30 0
-21 32 33 34 35 0
-22 31 33 34 35 0
-23 31 32 34 35 0
-24 31 32 33 35 0
-25 31 32 33 34 0
-21 37 38 39 40 0
-22 36 38 39 40 0
-23 36 37 39 40 0
-24 36 37 38 40 0
-25 36 37 38 39 0
-21 41 42 43 44 45 0
-22 41 42 43 44 45 0
-23 41 42 43 44 45 0
-24 41 42 43 44 45 0
-25 41 42 43 44 45 0
-21 47 48 49 50 0
-22 46 48 49 50 0
-23 46 47 49 50 0
-24 46 47 48 50 0
-25 46 47 48 49 0
-21 52 53 54 55 0
-22 51 53 54 55 0
-23 51 52 54 55 0
-24 51 52 53 55 0
-25 51 52 53 54 0
-21 57 58 59 60 0
-22 56 58 59 60 0
-23 56 57 59 60 0
-24 56 57 58 60 0
-25 56 57 58 59 0
-21 61 62 63 64 65 0
-22 61 62 63 64 65 0
-23 61 62 63 64 65 0
-24 61 62 63 64 65 0
-25 61 62 63 64 65 0
-21 66 67 68 69 70 0
-22 66 67 68 69 70 0
-23 66 67 68 69 70 0
-24 66 67 68 69 70 0
-25 66 67 68 69 70 0
-21 71 72 73 74 75 0
-22 71 72 73 74 75 0
-23 71 72 73 74 75 0
-24 71 72 73 74 75 0
-25 71 72 73 74 75 0
-21 77 78 79 80 0
-22 76 78 79 80 0
-23 76 77 79 80 0
-24 76 77 78 80 0
-25 76 77 78 79 0
-21 81 82 83 84 85 0
-22 81 82 83 84 85 0
-23 81 82 83 84 85 0
-24 81 82 83 84 85 0
-25 81 82 83 84 85 0
-21 87 88 89 90 0
-22 86 88 89 90 0
-23 86 87 89 90 0
-24 86 87 88 90 0
-25 86 87 88 89 0
-26 1 2 3 4 5 0
-27 1 2 3 4 5 0
-28 1 2 3 4 5 0
-29 1 2 3 4 5 0
-30 1 2 3 4 5 0
-26 6 7 8 9 10 0
-27 6 7 8 9 10 0
-28 6 7 8 9 10 0
-29 6 7 8 9 10 0
-30 6 7 8 9 10 0
-26 12 13 14 15 0
-27 11 13 14 15 0
-28 11 12 14 15 0
-29 11 12 13 15 0
-30 11 12 13 14 0
-26 16 17 18 19 20 0
-27 16 17 18 19 20 0
-28 16 17 18 19 20 0
-29 16 17 18 19 20 0
-30 16 17 18 19 20 0
-26 21 22 23 24 25 0
-27 21 22 23 24 25 0
-28 21 22 23 24 25 0
-29 21 22 23 24 25 0
-30 21 22 23 24 25 0
-26 31 32 33 34 35 0
-27 31 32 33 34 35 0
-28 31 32 33 34 35 0
-29 31 32 33 34 35 0
-30 31 32 33 34 35 0
-26 37 38 39 40 0
-27 36 38 39 40 0
-28 36 37 39 40 0
-29 36 37 38 40 0
-30 36 37 38 39 0
-26 42 43 44 45 0
-27 41 43 44 45 0
-28 41 42 44 45 0
-29 41 42 43 45 0
-30 41 42 43 44 0
-26 46 47 48 49 50 0
-27 46 47 48 49 50 0
-28 46 47 48 49 50 0
-29 46 47 48 49 50 0
-30 46 47 48 49 50 0
-26 52 53 54 55 0
-27 51 53 54 55 0
-28 51 52 54 55 0
-29 51 52 53 55 0
-30 51 52 53 54 0
-26 57 58 59 60 0
-27 56 58 59 60 0
-28 56 57 59 60 0
-29 56 57 58 60 0
-30 56 57 58 59 0
-26 61 62 63 64 65 0
-27 61 62 63 64 65 0
-28 61 62 63 64 65 0
-29 61 62 63 64 65 0
-30 61 62 63 64 65 0
-26 67 68 69 70 0
-27 66 68 69 70 0
-28 66 67 69 70 0
-29 66 67 68 70 0
-30 66 67 68 69 0
-26 72 73 74 75 0
-27 71 73 74 75 0
-28 71 72 74 75 0
-29 71 72 73 75 0
-30 71 72 73 74 0
-26 76 77 78 79 80 0
-27 76 77 78 79 80 0
-28 76 77 78 79 80 0
-29 76 77 78 79 80 0
-30 76 77 78 79 80 0
-26 82 83 84 85 0
-27 81 83 84 85 0
-28 81 82 84 85 0
-29 81 82 83 85 0
-30 81 82 83 84 0
-26 87 88 89 90 0
-27 86 88 89 90 0
-28 86 87 89 90 0
-29 86 87 88 90 0
-30 86 87 88 89 0
-31 1 2 3 4 5 0
-32 1 2 3 4 5 0
-33 1 2 3 4 5 0
-34 1 2 3 4 5 0
-35 1 2 3 4 5 0
-31 7 8 9 10 0
-32 6 8 9 10 0
-33 6 7 9 10 0
-34 6 7 8 10 0
-35 6 7 8 9 0
-31 11 12 13 14 15 0
-32 11 12 13 14 15 0
-33 11 12 13 14 15 0
-34 11 12 13 14 15 0
-35 11 12 13 14 15 0
-31 16 17 18 19 20 0
-32 16 17 18 19 20 0
-33 16 17 18 19 20 0
-34 16 17 18 19 20 0
-35 16 17 18 19 20 0
-31 22 23 24 25 0
-32 21 23 24 25 0
-33 21 22 24 25 0
-34 21 22 23 25 0
-35 21 22 23 24 0
-31 26 27 28 29 30 0
-32 26 27 28 29 30 0
-33 26 27 28 29 30 0
-34 26 27 28 29 30 0
-35 26 27 28 29 30 0
-31 37 38 39 40 0
-32 36 38 39 40 0
-33 36 37 39 40 0
-34 36 37 38 40 0
-35 36 37 38 39 0
-31 42 43 44 45 0
-32 41 43 44 45 0
-33 41 42 44 45 0
-34 41 42 43 45 0
-35 41 42 43 44 0
-31 47 48 49 50 0
-32 46 48 49 50 0
-33 46 47 49 50 0
-34 46 47 48 50 0
-35 46 47 48 49 0
-31 51 52 53 54 55 0
-32 51 52 53 54 55 0
-33 51 52 53 54 55 0
-34 51 52 53 54 55 0
-35 51 52 53 54 55 0
-31 57 58 59 60 0
-32 56 58 59 60 0
-33 56 57 59 60 0
-34 56 57 58 60 0
-35 56 57 58 59 0
-31 62 63 64 65 0
-32 61 63 64 65 0
-33 61 62 64 65 0
-34 61 62 63 65 0
-35 61 62 63 64 0
-31 66 67 68 69 70 0
-32 66 67 68 69 70 0
-33 66 67 68 69 70 0
-34 66 67 68 69 70 0
-35 66 67 68 69 70 0
-31 72 73 74 75 0
-32 71 73 74 75 0
-33 71 72 74 75 0
-34 71 72 73 75 0
-35 71 72 73 74 0
-31 76 77 78 79 80 0
-32 76 77 78 79 80 0
-33 76 77 78 79 80 0
-34 76 77 78 79 80 0
-35 76 77 78 79 80 0
-31 82 83 84 85 0
-32 81 83 84 85 0
-33 81 82 84 85 0
-34 81 82 83 85 0
-35 81 82 83 84 0
-31 86 87 88 89 90 0
-32 86 87 88 89 90 0
-33 86 87 88 89 90 0
-34 86 87 88 89 90 0
-35 86 87 88 89 90 0
-36 2 3 4 5 0
-37 1 3 4 5 0
-38 1 2 4 5 0
-39 1 2 3 5 0
-40 1 2 3 4 0
-36 7 8 9 10 0
-37 6 8 9 10 0
-38 6 7 9 10 0
-39 6 7 8 10 0
-40 6 7 8 9 0
-36 11 12 13 14 15 0
-37 11 12 13 14 15 0
-38 11 12 13 14 15 0
-39 11 12 13 14 15 0
-40 11 12 13 14 15 0
-36 17 18 19 20 0
-37 16 18 19 20 0
-38 16 17 19 20 0
-39 16 17 18 20 0
-40 16 17 18 19 0
-36 22 23 24 25 0
-37 21 23 24 25 0
-38 21 22 24 25 0
-39 21 22 23 25 0
-40 21 22 23 24 0
-36 27 28 29 30 0
-37 26 28 29 30 0
-38 26 27 29 30 0
-39 26 27 28 30 0
-40 26 27 28 29 0
-36 32 33 34 35 0
-37 31 33 34 35 0
-38 31 32 34 35 0
-39 31 32 33 35 0
-40 31 32 33 34 0
-36 41 42 43 44 45 0
-37 41 42 43 44 45 0
-38 41 42 43 44 45 0
-39 41 42 43 44 45 0
-40 41 42 43 44 45 0
-36 46 47 48 49 50 0
-37 46 47 48 49 50 0
-38 46 47 48 49 50 0
-39 46 47 48 49 50 0
-40 46 47 48 49 50 0
-36 51 52 53 54 55 0
-37 51 52 53 54 55 0
-38 51 52 53 54 55 0
-39 51 52 53 54 55 0
-40 51 52 53 54 55 0
-36 57 58 59 60 0
-37 56 58 59 60 0
-38 56 57 59 60 0
-39 56 57 58 60 0
-40 56 57 58 59 0
-36 62 63 64 65 0
-37 61 63 64 65 0
-38 61 62 64 65 0
-39 61 62 63 65 0
-40 61 62 63 64 0
-36 67 68 69 70 0
-37 66 68 69 70 0
-38 66 67 69 70 0
-39 66 67 68 70 0
-40 66 67 68 69 0
-36 72 73 74 75 0
-37 71 73 74 75 0
-38 71 72 74 75 0
-39 71 72 73 75 0
-40 71 72 73 74 0
-36 77 78 79 80 0
-37 76 78 79 80 0
-38 76 77 79 80 0
-39 76 77 78 80 0
-40 76 77 78 79 0
-36 81 82 83 84 85 0
-37 81 82 83 84 85 0
-38 81 82 83 84 85 0
-39 81 82 83 84 85 0
-40 81 82 83 84 85 0
-36 86 87 88 89 90 0
-37 86 87 88 89 90 0
-38 86 87 88 89 90 0
-39 86 87 88 89 90 0
-40 86 87 88 89 90 0
-41 1 2 3 4 5 0
-42 1 2 3 4 5 0
-43 1 2 3 4 5 0
-44 1 2 3 4 5 0
-45 1 2 3 4 5 0
-41 7 8 9 10 0
-42 6 8 9 10 0
-43 6 7 9 10 0
-44 6 7 8 10 0
-45 6 7 8 9 0
-41 11 12 13 14 15 0
-42 11 12 13 14 15 0
-43 11 12 13 14 15 0
-44 11 12 13 14 15 0
-45 11 12 13 14 15 0
-41 17 18 19 20 0
-42 16 18 19 20 0
-43 16 17 19 20 0
-44 16 17 18 20 0
-45 16 17 18 19 0
-41 21 22 23 24 25 0
-42 21 22 23 24 25 0
-43 21 22 23 24 25 0
-44 21 22 23 24 25 0
-45 21 22 23 24 25 0
-41 27 28 29 30 0
-42 26 28 29 30 0
-43 26 27 29 30 0
-44 26 27 28 30 0
-45 26 27 28 29 0
-41 32 33 34 35 0
-42 31 33 34 35 0
-43 31 32 34 35 0
-44 31 32 33 35 0
-45 31 32 33 34 0
-41 36 37 38 39 40 0
-42 36 37 38 39 40 0
-43 36 37 38 39 40 0
-44 36 37 38 39 40 0
-45 36 37 38 39 40 0
-41 47 48 49 50 0
-42 46 48 49 50 0
-43 46 47 49 50 0
-44 46 47 48 50 0
-45 46 47 48 49 0
-41 52 53 54 55 0
-42 51 53 54 55 0
-43 51 52 54 55 0
-44 51 52 53 55 0
-45 51 52 53 54 0
-41 56 57 58 59 60 0
-42 56 57 58 59 60 0
-43 56 57 58 59 60 0
-44 56 57 58 59 60 0
-45 56 57 58 59 60 0
-41 62 63 64 65 0
-42 61 63 64 65 0
-43 61 62 64 65 0
-44 61 62 63 65 0
-45 61 62 63 64 0
-41 66 67 68 69 70 0
-42 66 67 68 69 70 0
-43 66 67 68 69 70 0
-44 66 67 68 69 70 0
-45 66 67 68 69 70 0
-41 72 73 74 75 0
-42 71 73 74 75 0
-43 71 72 74 75 0
-44 71 72 73 75 0
-45 71 72 73 74 0
-41 77 78 79 80 0
-42 76 78 79 80 0
-43 76 77 79 80 0
-44 76 77 78 80 0
-45 76 77 78 79 0
-41 82 83 84 85 0
-42 81 83 84 85 0
-43 81 82 84 85 0
-44 81 82 83 85 0
-45 81 82 83 84 0
-41 86 87 88 89 90 0
-42 86 87 88 89 90 0
-43 86 87 88 89 90 0
-44 86 87 88 89 90 0
-45 86 87 88 89 90 0
-46 2 3 4 5 0
-47 1 3 4 5 0
-48 1 2 4 5 0
-49 1 2 3 5 0
-50 1 2 3 4 0
-46 6 7 8 9 10 0
-47 6 7 8 9 10 0
-48 6 7 8 9 10 0
-49 6 7 8 9 10 0
-50 6 7 8 9 10 0
-46 12 13 14 15 0
-47 11 13 14 15 0
-48 11 12 14 15 0
-49 11 12 13 15 0
-50 11 12 13 14 0
-46 17 18 19 20 0
-47 16 18 19 20 0
-48 16 17 19 20 0
-49 16 17 18 20 0
-50 16 17 18 19 0
-46 22 23 24 25 0
-47 21 23 24 25 0
-48 21 22 24 25 0
-49 21 22 23 25 0
-50 21 22 23 24 0
-46 26 27 28 29 30 0
-47 26 27 28 29 30 0
-48 26 27 28 29 30 0
-49 26 27 28 29 30 0
-50 26 27 28 29 30 0
-46 32 33 34 35 0
-47 31 33 34 35 0
-48 31 32 34 35 0
-49 31 32 33 35 0
-50 31 32 33 34 0
-46 36 37 38 39 40 0
-47 36 37 38 39 40 0
-48 36 37 38 39 40 0
-49 36 37 38 39 40 0
-50 36 37 38 39 40 0
-46 42 43 44 45 0
-47 41 43 44 45 0
-48 41 42 44 45 0
-49 41 42 43 45 0
-50 41 42 43 44 0
-46 51 52 53 54 55 0
-47 51 52 53 54 55 0
-48 51 52 53 54 55 0
-49 51 52 53 54 55 0
-50 51 52 53 54 55 0
-46 56 57 58 59 60 0
-47 56 57 58 59 60 0
-48 56 57 58 59 60 0
-49 56 57 58 59 60 0
-50 56 57 58 59 60 0
-46 62 63 64 65 0
-47 61 63 64 65 0
-48 61 62 64 65 0
-49 61 62 63 65 0
-50 61 62 63 64 0
-46 67 68 69 70 0
-47 66 68 69 70 0
-48 66 67 69 70 0
-49 66 67 68 70 0
-50 66 67 68 69 0
-46 72 73 74 75 0
-47 71 73 74 75 0
-48 71 72 74 75 0
-49 71 72 73 75 0
-50 71 72 73 74 0
-46 77 78 79 80 0
-47 76 78 79 80 0
-48 76 77 79 80 0
-49 76 77 78 80 0
-50 76 77 78 79 0
-46 82 83 84 85 0
-47 81 83 84 85 0
-48 81 82 84 85 0
-49 81 82 83 85 0
-50 81 82 83 84 0
-46 86 87 88 89 90 0
-47 86 87 88 89 90 0
-48 86 87 88 89 90 0
-49 86 87 88 89 90 0
-50 86 87 88 89 90 0
-51 1 2 3 4 5 0
-52 1 2 3 4 5 0
-53 1 2 3 4 5 0
-54 1 2 3 4 5 0
-55 1 2 3 4 5 0
-51 7 8 9 10 0
-52 6 8 9 10 0
-53 6 7 9 10 0
-54 6 7 8 10 0
-55 6 7 8 9 0
-51 11 12 13 14 15 0
-52 11 12 13 14 15 0
-53 11 12 13 14 15 0
-54 11 12 13 14 15 0
-55 11 12 13 14 15 0
-51 16 17 18 19 20 0
-52 16 17 18 19 20 0
-53 16 17 18 19 20 0
-54 16 17 18 19 20 0
-55 16 17 18 19 20 0
-51 22 23 24 25 0
-52 21 23 24 25 0
-53 21 22 24 25 0
-54 21 22 23 25 0
-55 21 22 23 24 0
-51 27 28 29 30 0
-52 26 28 29 30 0
-53 26 27 29 30 0
-54 26 27 28 30 0
-55 26 27 28 29 0
-51 31 32 33 34 35 0
-52 31 32 33 34 35 0
-53 31 32 33 34 35 0
-54 31 32 33 34 35 0
-55 31 32 33 34 35 0
-51 36 37 38 39 40 0
-52 36 37 38 39 40 0
-53 36 37 38 39 40 0
-54 36 37 38 39 40 0
-55 36 37 38 39 40 0
-51 42 43 44 45 0
-52 41 43 44 45 0
-53 41 42 44 45 0
-54 41 42 43 45 0
-55 41 42 43 44 0
-51 46 47 48 49 50 0
-52 46 47 48 49 50 0
-53 46 47 48 49 50 0
-54 46 47 48 49 50 0
-55 46 47 48 49 50 0
-51 56 57 58 59 60 0
-52 56 57 58 59 60 0
-53 56 57 58 59 60 0
-54 56 57 58 59 60 0
-55 56 57 58 59 60 0
-51 62 63 64 65 0
-52 61 63 64 65 0
-53 61 62 64 65 0
-54 61 62 63 65 0
-55 61 62 63 64 0
-51 66 67 68 69 70 0
-52 66 67 68 69 70 0
-53 66 67 68 69 70 0
-54 66 67 68 69 70 0
-55 66 67 68 69 70 0
-51 72 73 74 75 0
-52 71 73 74 75 0
-53 71 72 74 75 0
-54 71 72 73 75 0
-55 71 72 73 74 0
-51 77 78 79 80 0
-52 76 78 79 80 0
-53 76 77 79 80 0
-54 76 77 78 80 0
-55 76 77 78 79 0
-51 81 82 83 84 85 0
-52 81 82 83 84 85 0
-53 81 82 83 84 85 0
-54 81 82 83 84 85 0
-55 81 82 83 84 85 0
-51 87 88 89 90 0
-52 86 88 89 90 0
-53 86 87 89 90 0
-54 86 87 88 90 0
-55 86 87 88 89 0
-56 1 2 3 4 5 0
-57 1 2 3 4 5 0
-58 1 2 3 4 5 0
-59 1 2 3 4 5 0
-60 1 2 3 4 5 0
-56 7 8 9 10 0
-57 6 8 9 10 0
-58 6 7 9 10 0
-59 6 7 8 10 0
-60 6 7 8 9 0
-56 12 13 14 15 0
-57 11 13 14 15 0
-58 11 12 14 15 0
-59 11 12 13 15 0
-60 11 12 13 14 0
-56 16 17 18 19 20 0
-57 16 17 18 19 20 0
-58 16 17 18 19 20 0
-59 16 17 18 19 20 0
-60 16 17 18 19 20 0
-56 22 23 24 25 0
-57 21 23 24 25 0
-58 21 22 24 25 0
-59 21 22 23 25 0
-60 21 22 23 24 0
-56 27 28 29 30 0
-57 26 28 29 30 0
-58 26 27 29 30 0
-59 26 27 28 30 0
-60 26 27 28 29 0
-56 32 33 34 35 0
-57 31 33 34 35 0
-58 31 32 34 35 0
-59 31 32 33 35 0
-60 31 32 33 34 0
-56 37 38 39 40 0
-57 36 38 39 40 0
-58 36 37 39 40 0
-59 36 37 38 40 0
-60 36 37 38 39 0
-56 41 42 43 44 45 0
-57 41 42 43 44 45 0
-58 41 42 43 44 45 0
-59 41 42 43 44 45 0
-60 41 42 43 44 45 0
-56 46 47 48 49 50 0
-57 46 47 48 49 50 0
-58 46 47 48 49 50 0
-59 46 47 48 49 50 0
-60 46 47 48 49 50 0
-56 51 52 53 54 55 0
-57 51 52 53 54 55 0
-58 51 52 53 54 55 0
-59 51 52 53 54 55 0
-60 51 52 53 54 55 0
-56 62 63 64 65 0
-57 61 63 64 65 0
-58 61 62 64 65 0
-59 61 62 63 65 0
-60 61 62 63 64 0
-56 67 68 69 70 0
-57 66 68 69 70 0
-58 66 67 69 70 0
-59 66 67 68 70 0
-60 66 67 68 69 0
-56 72 73 74 75 0
-57 71 73 74 75 0
-58 71 72 74 75 0
-59 71 72 73 75 0
-60 71 72 73 74 0
-56 77 78 79 80 0
-57 76 78 79 80 0
-58 76 77 79 80 0
-59 76 77 78 80 0
-60 76 77 78 79 0
-56 82 83 84 85 0
-57 81 83 84 85 0
-58 81 82 84 85 0
-59 81 82 83 85 0
-60 81 82 83 84 0
-56 87 88 89 90 0
-57 86 88 89 90 0
-58 86 87 89 90 0
-59 86 87 88 90 0
-60 86 87 88 89 0
-61 2 3 4 5 0
-62 1 3 4 5 0
-63 1 2 4 5 0
-64 1 2 3 5 0
-65 1 2 3 4 0
-61 7 8 9 10 0
-62 6 8 9 10 0
-63 6 7 9 10 0
-64 6 7 8 10 0
-65 6 7 8 9 0
-61 12 13 14 15 0
-62 11 13 14 15 0
-63 11 12 14 15 0
-64 11 12 13 15 0
-65 11 12 13 14 0
-61 16 17 18 19 20 0
-62 16 17 18 19 20 0
-63 16 17 18 19 20 0
-64 16 17 18 19 20 0
-65 16 17 18 19 20 0
-61 21 22 23 24 25 0
-62 21 22 23 24 25 0
-63 21 22 23 24 25 0
-64 21 22 23 24 25 0
-65 21 22 23 24 25 0
-61 26 27 28 29 30 0
-62 26 27 28 29 30 0
-63 26 27 28 29 30 0
-64 26 27 28 29 30 0
-65 26 27 28 29 30 0
-61 32 33 34 35 0
-62 31 33 34 35 0
-63 31 32 34 35 0
-64 31 32 33 35 0
-65 31 32 33 34 0
-61 37 38 39 40 0
-62 36 38 39 40 0
-63 36 37 39 40 0
-64 36 37 38 40 0
-65 36 37 38 39 0
-61 42 43 44 45 0
-62 41 43 44 45 0
-63 41 42 44 45 0
-64 41 42 43 45 0
-65 41 42 43 44 0
-61 47 48 49 50 0
-62 46 48 49 50 0
-63 46 47 49 50 0
-64 46 47 48 50 0
-65 46 47 48 49 0
-61 52 53 54 55 0
-62 51 53 54 55 0
-63 51 52 54 55 0
-64 51 52 53 55 0
-65 51 52 53 54 0
-61 57 58 59 60 0
-62 56 58 59 60 0
-63 56 57 59 60 0
-64 56 57 58 60 0
-65 56 57 58 59 0
-61 66 67 68 69 70 0
-62 66 67 68 69 70 0
-63 66 67 68 69 70 0
-64 66 67 68 69 70 0
-65 66 67 68 69 70 0
-61 71 72 73 74 75 0
-62 71 72 73 74 75 0
-63 71 72 73 74 75 0
-64 71 72 73 74 75 0
-65 71 72 73 74 75 0
-61 77 78 79 80 0
-62 76 78 79 80 0
-63 76 77 79 80 0
-64 76 77 78 80 0
-65 76 77 78 79 0
-61 82 83 84 85 0
-62 81 83 84 85 0
-63 81 82 84 85 0
-64 81 82 83 85 0
-65 81 82 83 84 0
-61 87 88 89 90 0
-62 86 88 89 90 0
-63 86 87 89 90 0
-64 86 87 88 90 0
-65 86 87 88 89 0
-66 2 3 4 5 0
-67 1 3 4 5 0
-68 1 2 4 5 0
-69 1 2 3 5 0
-70 1 2 3 4 0
-66 6 7 8 9 10 0
-67 6 7 8 9 10 0
-68 6 7 8 9 10 0
-69 6 7 8 9 10 0
-70 6 7 8 9 10 0
-66 12 13 14 15 0
-67 11 13 14 15 0
-68 11 12 14 15 0
-69 11 12 13 15 0
-70 11 12 13 14 0
-66 16 17 18 19 20 0
-67 16 17 18 19 20 0
-68 16 17 18 19 20 0
-69 16 17 18 19 20 0
-70 16 17 18 19 20 0
-66 21 22 23 24 25 0
-67 21 22 23 24 25 0
-68 21 22 23 24 25 0
-69 21 22 23 24 25 0
-70 21 22 23 24 25 0
-66 27 28 29 30 0
-67 26 28 29 30 0
-68 26 27 29 30 0
-69 26 27 28 30 0
-70 26 27 28 29 0
-66 31 32 33 34 35 0
-67 31 32 33 34 35 0
-68 31 32 33 34 35 0
-69 31 32 33 34 35 0
-70 31 32 33 34 35 0
-66 37 38 39 40 0
-67 36 38 39 40 0
-68 36 37 39 40 0
-69 36 37 38 40 0
-70 36 37 38 39 0
-66 41 42 43 44 45 0
-67 41 42 43 44 45 0
-68 41 42 43 44 45 0
-69 41 42 43 44 45 0
-70 41 42 43 44 45 0
-66 47 48 49 50 0
-67 46 48 49 50 0
-68 46 47 49 50 0
-69 46 47 48 50 0
-70 46 47 48 49 0
-66 51 52 53 54 55 0
-67 51 52 53 54 55 0
-68 51 52 53 54 55 0
-69 51 52 53 54 55 0
-70 51 52 53 54 55 0
-66 57 58 59 60 0
-67 56 58 59 60 0
-68 56 57 59 60 0
-69 56 57 58 60 0
-70 56 57 58 59 0
-66 61 62 63 64 65 0
-67 61 62 63 64 65 0
-68 61 62 63 64 65 0
-69 61 62 63 64 65 0
-70 61 62 63 64 65 0
-66 71 72 73 74 75 0
-67 71 72 73 74 75 0
-68 71 72 73 74 75 0
-69 71 72 73 74 75 0
-70 71 72 73 74 75 0
-66 76 77 78 79 80 0
-67 76 77 78 79 80 0
-68 76 77 78 79 80 0
-69 76 77 78 79 80 0
-70 76 77 78 79 80 0
-66 81 82 83 84 85 0
-67 81 82 83 84 85 0
-68 81 82 83 84 85 0
-69 81 82 83 84 85 0
-70 81 82 83 84 85 0
-66 86 87 88 89 90 0
-67 86 87 88 89 90 0
-68 86 87 88 89 90 0
-69 86 87 88 89 90 0
-70 86 87 88 89 90 0
-71 1 2 3 4 5 0
-72 1 2 3 4 5 0
-73 1 2 3 4 5 0
-74 1 2 3 4 5 0
-75 1 2 3 4 5 0
-71 7 8 9 10 0
-72 6 8 9 10 0
-73 6 7 9 10 0
-74 6 7 8 10 0
-75 6 7 8 9 0
-71 12 13 14 15 0
-72 11 13 14 15 0
-73 11 12 14 15 0
-74 11 12 13 15 0
-75 11 12 13 14 0
-71 17 18 19 20 0
-72 16 18 19 20 0
-73 16 17 19 20 0
-74 16 17 18 20 0
-75 16 17 18 19 0
-71 21 22 23 24 25 0
-72 21 22 23 24 25 0
-73 21 22 23 24 25 0
-74 21 22 23 24 25 0
-75 21 22 23 24 25 0
-71 27 28 29 30 0
-72 26 28 29 30 0
-73 26 27 29 30 0
-74 26 27 28 30 0
-75 26 27 28 29 0
-71 32 33 34 35 0
-72 31 33 34 35 0
-73 31 32 34 35 0
-74 31 32 33 35 0
-75 31 32 33 34 0
-71 37 38 39 40 0
-72 36 38 39 40 0
-73 36 37 39 40 0
-74 36 37 38 40 0
-75 36 37 38 39 0
-71 42 43 44 45 0
-72 41 43 44 45 0
-73 41 42 44 45 0
-74 41 42 43 45 0
-75 41 42 43 44 0
-71 47 48 49 50 0
-72 46 48 49 50 0
-73 46 47 49 50 0
-74 46 47 48 50 0
-75 46 47 48 49 0
-71 52 53 54 55 0
-72 51 53 54 55 0
-73 51 52 54 55 0
-74 51 52 53 55 0
-75 51 52 53 54 0
-71 57 58 59 60 0
-72 56 58 59 60 0
-73 56 57 59 60 0
-74 56 57 58 60 0
-75 56 57 58 59 0
-71 61 62 63 64 65 0
-72 61 62 63 64 65 0
-73 61 62 63 64 65 0
-74 61 62 63 64 65 0
-75 61 62 63 64 65 0
-71 66 67 68 69 70 0
-72 66 67 68 69 70 0
-73 66 67 68 69 70 0
-74 66 67 68 69 70 0
-75 66 67 68 69 70 0
-71 76 77 78 79 80 0
-72 76 77 78 79 80 0
-73 76 77 78 79 80 0
-74 76 77 78 79 80 0
-75 76 77 78 79 80 0
-71 82 83 84 85 0
-72 81 83 84 85 0
-73 81 82 84 85 0
-74 81 82 83 85 0
-75 81 82 83 84 0
-71 87 88 89 90 0
-72 86 88 89 90 0
-73 86 87 89 90 0
-74 86 87 88 90 0
-75 86 87 88 89 0
-76 1 2 3 4 5 0
-77 1 2 3 4 5 0
-78 1 2 3 4 5 0
-79 1 2 3 4 5 0
-80 1 2 3 4 5 0
-76 7 8 9 10 0
-77 6 8 9 10 0
-78 6 7 9 10 0
-79 6 7 8 10 0
-80 6 7 8 9 0
-76 12 13 14 15 0
-77 11 13 14 15 0
-78 11 12 14 15 0
-79 11 12 13 15 0
-80 11 12 13 14 0
-76 16 17 18 19 20 0
-77 16 17 18 19 20 0
-78 16 17 18 19 20 0
-79 16 17 18 19 20 0
-80 16 17 18 19 20 0
-76 22 23 24 25 0
-77 21 23 24 25 0
-78 21 22 24 25 0
-79 21 22 23 25 0
-80 21 22 23 24 0
-76 26 27 28 29 30 0
-77 26 27 28 29 30 0
-78 26 27 28 29 30 0
-79 26 27 28 29 30 0
-80 26 27 28 29 30 0
-76 31 32 33 34 35 0
-77 31 32 33 34 35 0
-78 31 32 33 34 35 0
-79 31 32 33 34 35 0
-80 31 32 33 34 35 0
-76 37 38 39 40 0
-77 36 38 39 40 0
-78 36 37 39 40 0
-79 36 37 38 40 0
-80 36 37 38 39 0
-76 42 43 44 45 0
-77 41 43 44 45 0
-78 41 42 44 45 0
-79 41 42 43 45 0
-80 41 42 43 44 0
-76 47 48 49 50 0
-77 46 48 49 50 0
-78 46 47 49 50 0
-79 46 47 48 50 0
-80 46 47 48 49 0
-76 52 53 54 55 0
-77 51 53 54 55 0
-78 51 52 54 55 0
-79 51 52 53 55 0
-80 51 52 53 54 0
-76 57 58 59 60 0
-77 56 58 59 60 0
-78 56 57 59 60 0
-79 56 57 58 60 0
-80 56 57 58 59 0
-76 62 63 64 65 0
-77 61 63 64 65 0
-78 61 62 64 65 0
-79 61 62 63 65 0
-80 61 62 63 64 0
-76 66 67 68 69 70 0
-77 66 67 68 69 70 0
-78 66 67 68 69 70 0
-79 66 67 68 69 70 0
-80 66 67 68 69 70 0
-76 71 72 73 74 75 0
-77 71 72 73 74 75 0
-78 71 72 73 74 75 0
-79 71 72 73 74 75 0
-80 71 72 73 74 75 0
-76 82 83 84 85 0
-77 81 83 84 85 0
-78 81 82 84 85 0
-79 81 82 83 85 0
-80 81 82 83 84 0
-76 87 88 89 90 0
-77 86 88 89 90 0
-78 86 87 89 90 0
-79 86 87 88 90 0
-80 86 87 88 89 0
-81 1 2 3 4 5 0
-82 1 2 3 4 5 0
-83 1 2 3 4 5 0
-84 1 2 3 4 5 0
-85 1 2 3 4 5 0
-81 7 8 9 10 0
-82 6 8 9 10 0
-83 6 7 9 10 0
-84 6 7 8 10 0
-85 6 7 8 9 0
-81 12 13 14 15 0
-82 11 13 14 15 0
-83 11 12 14 15 0
-84 11 12 13 15 0
-85 11 12 13 14 0
-81 16 17 18 19 20 0
-82 16 17 18 19 20 0
-83 16 17 18 19 20 0
-84 16 17 18 19 20 0
-85 16 17 18 19 20 0
-81 21 22 23 24 25 0
-82 21 22 23 24 25 0
-83 21 22 23 24 25 0
-84 21 22 23 24 25 0
-85 21 22 23 24 25 0
-81 27 28 29 30 0
-82 26 28 29 30 0
-83 26 27 29 30 0
-84 26 27 28 30 0
-85 26 27 28 29 0
-81 32 33 34 35 0
-82 31 33 34 35 0
-83 31 32 34 35 0
-84 31 32 33 35 0
-85 31 32 33 34 0
-81 36 37 38 39 40 0
-82 36 37 38 39 40 0
-83 36 37 38 39 40 0
-84 36 37 38 39 40 0
-85 36 37 38 39 40 0
-81 42 43 44 45 0
-82 41 43 44 45 0
-83 41 42 44 45 0
-84 41 42 43 45 0
-85 41 42 43 44 0
-81 47 48 49 50 0
-82 46 48 49 50 0
-83 46 47 49 50 0
-84 46 47 48 50 0
-85 46 47 48 49 0
-81 51 52 53 54 55 0
-82 51 52 53 54 55 0
-83 51 52 53 54 55 0
-84 51 52 53 54 55 0
-85 51 52 53 54 55 0
-81 57 58 59 60 0
-82 56 58 59 60 0
-83 56 57 59 60 0
-84 56 57 58 60 0
-85 56 57 58 59 0
-81 62 63 64 65 0
-82 61 63 64 65 0
-83 61 62 64 65 0
-84 61 62 63 65 0
-85 61 62 63 64 0
-81 66 67 68 69 70 0
-82 66 67 68 69 70 0
-83 66 67 68 69 70 0
-84 66 67 68 69 70 0
-85 66 67 68 69 70 0
-81 72 73 74 75 0
-82 71 73 74 75 0
-83 71 72 74 75 0
-84 71 72 73 75 0
-85 71 72 73 74 0
-81 77 78 79 80 0
-82 76 78 79 80 0
-83 76 77 79 80 0
-84 76 77 78 80 0
-85 76 77 78 79 0
-81 86 87 88 89 90 0
-82 86 87 88 89 90 0
-83 86 87 88 89 90 0
-84 86 87 88 89 90 0
-85 86 87 88 89 90 0
-86 2 3 4 5 0
-87 1 3 4 5 0
-88 1 2 4 5 0
-89 1 2 3 5 0
-90 1 2 3 4 0
-86 6 7 8 9 10 0
-87 6 7 8 9 10 0
-88 6 7 8 9 10 0
-89 6 7 8 9 10 0
-90 6 7 8 9 10 0
-86 12 13 14 15 0
-87 11 13 14 15 0
-88 11 12 14 15 0
-89 11 12 13 15 0
-90 11 12 13 14 0
-86 16 17 18 19 20 0
-87 16 17 18 19 20 0
-88 16 17 18 19 20 0
-89 16 17 18 19 20 0
-90 16 17 18 19 20 0
-86 22 23 24 25 0
-87 21 23 24 25 0
-88 21 22 24 25 0
-89 21 22 23 25 0
-90 21 22 23 24 0
-86 27 28 29 30 0
-87 26 28 29 30 0
-88 26 27 29 30 0
-89 26 27 28 30 0
-90 26 27 28 29 0
-86 31 32 33 34 35 0
-87 31 32 33 34 35 0
-88 31 32 33 34 35 0
-89 31 32 33 34 35 0
-90 31 32 33 34 35 0
-86 36 37 38 39 40 0
-87 36 37 38 39 40 0
-88 36 37 38 39 40 0
-89 36 37 38 39 40 0
-90 36 37 38 39 40 0
-86 41 42 43 44 45 0
-87 41 42 43 44 45 0
-88 41 42 43 44 45 0
-89 41 42 43 44 45 0
-90 41 42 43 44 45 0
-86 46 47 48 49 50 0
-87 46 47 48 49 50 0
-88 46 47 48 49 50 0
-89 46 47 48 49 50 0
-90 46 47 48 49 50 0
-86 52 53 54 55 0
-87 51 53 54 55 0
-88 51 52 54 55 0
-89 51 52 53 55 0
-90 51 52 53 54 0
-86 57 58 59 60 0
-87 56 58 59 60 0
-88 56 57 59 60 0
-89 56 57 58 60 0
-90 56 57 58 59 0
-86 62 63 64 65 0
-87 61 63 64 65 0
-88 61 62 64 65 0
-89 61 62 63 65 0
-90 61 62 63 64 0
-86 66 67 68 69 70 0
-87 66 67 68 69 70 0
-88 66 67 68 69 70 0
-89 66 67 68 69 70 0
-90 66 67 68 69 70 0
-86 72 73 74 75 0
-87 71 73 74 75 0
-88 71 72 74 75 0
-89 71 72 73 75 0
-90 71 72 73 74 0
-86 77 78 79 80 0
-87 76 78 79 80 0
-88 76 77 79 80 0
-89 76 77 78 80 0
-90 76 77 78 79 0
-86 81 82 83 84 85 0
-87 81 82 83 84 85 0
-88 81 82 83 84 85 0
-89 81 82 83 84 85 0
-90 81 82 83 84 85 0
